\ Equation counts
\     Total        E        G        L        N        X        C        B
\       290       50       40      200        0        0        0        0
\ 
\ Variable counts
\                  x        b        i      s1s      s2s       sc       si
\     Total     cont   binary  integer     sos1     sos2    scont     sint
\       230      190       40        0        0        0        0        0
\ 
\ Nonzero counts
\     Total    const       NL      DLL
\       830      820       10        0
\ 
Minimize
 obj: - 1.2e3 x1 - 7.8e3 x2 - 3.36e3 x3 - 4.2e2 x4 - 6.6e3 x5 - 3e3 x6 - 1.17e4 x7 - 4.32e3 x8 - 4.2e2 x9 
  - 5.61e3 x10 + 0 x11 + 0 x12 + 0 x13 + 0 x14 + 0 x15 + 0 x16 + 0 x17 + 0 x18 + 0 x19 + 0 x20 + 0 x21 
  + 0 x22 + 0 x23 + 0 x24 + 0 x25 + 0 x26 + 0 x27 + 0 x28 + 0 x29 + 0 x30 + 0 x31 + 0 x32 + 0 x33 + 0 x34 
  + 0 x35 + 0 x36 + 0 x37 + 0 x38 + 0 x39 + 0 x40 + 0 x41 + 0 x42 + 0 x43 + 0 x44 + 0 x45 + 0 x46 + 0 x47 
  + 0 x48 + 0 x49 + 0 x50 + 0 x51 + 0 x52 + 0 x53 + 0 x54 + 0 x55 + 0 x56 + 0 x57 + 0 x58 + 0 x59 + 0 x60 
  + 0 x61 + 0 x62 + 0 x63 + 0 x64 + 0 x65 + 0 x66 + 0 x67 + 0 x68 + 0 x69 + 0 x70 + 0 x71 + 0 x72 + 0 x73 
  + 0 x74 + 0 x75 + 0 x76 + 0 x77 + 0 x78 + 0 x79 + 0 x80 + 0 x81 + 0 x82 + 0 x83 + 0 x84 + 0 x85 + 0 x86 
  + 0 x87 + 0 x88 + 0 x89 + 0 x90 + 0 x91 + 0 x92 + 0 x93 + 0 x94 + 0 x95 + 0 x96 + 0 x97 + 0 x98 + 0 x99 
  + 0 x100 + 0 x101 + 0 x102 + 0 x103 + 0 x104 + 0 x105 + 0 x106 + 0 x107 + 0 x108 + 0 x109 + 0 x110 
  + 0 x111 + 0 x112 + 0 x113 + 0 x114 + 0 x115 + 0 x116 + 0 x117 + 0 x118 + 0 x119 + 0 x120 + 0 x121 
  + 0 x122 + 0 x123 + 0 x124 + 0 x125 + 0 x126 + 0 x127 + 0 x128 + 0 x129 + 0 x130 + 0 x131 + 0 x132 
  + 0 x133 + 0 x134 + 0 x135 + 0 x136 + 0 x137 + 0 x138 + 0 x139 + 0 x140 + 0 x141 + 0 x142 + 0 x143 
  + 0 x144 + 0 x145 + 0 x146 + 0 x147 + 0 x148 + 0 x149 + 0 x150 + 0 x151 + 0 x152 + 0 x153 + 0 x154 
  + 0 x155 + 0 x156 + 0 x157 + 0 x158 + 0 x159 + 0 x160 + 0 x161 + 0 x162 + 0 x163 + 0 x164 + 0 x165 
  + 0 x166 + 0 x167 + 0 x168 + 0 x169 + 0 x170 + 0 b171 + 0 b172 + 0 b173 + 0 b174 + 0 b175 + 0 b176 
  + 0 b177 + 0 b178 + 0 b179 + 0 b180 + 0 b181 + 0 b182 + 0 b183 + 0 b184 + 0 b185 + 0 b186 + 0 b187 
  + 0 b188 + 0 b189 + 0 b190 + 0 b191 + 0 b192 + 0 b193 + 0 b194 + 0 b195 + 0 b196 + 0 b197 + 0 b198 
  + 0 b199 + 0 b200 + 0 b201 + 0 b202 + 0 b203 + 0 b204 + 0 b205 + 0 b206 + 0 b207 + 0 b208 + 0 b209 
  + 0 b210 + 300 x211 + 2.4e2 x212 + 2.1e2 x213 + 1.4e2 x214 + 100 x215 + 1.5e2 x216 + 2.2e2 x217 + 1.2e2 x218 
  + 300 x219 + 100 x220 + 300 x221 + 2.4e2 x222 + 2.1e2 x223 + 1.4e2 x224 + 100 x225 + 1.5e2 x226 + 2.2e2 x227 
  + 1.2e2 x228 + 300 x229 + 100 x230 + [ 300 x1^2 + 7.8e2 x2^2 + 4.8e2 x3^2 + 1.4e2 x4^2 + 3.3e2 x5^2 
  + 300 x6^2 + 7.8e2 x7^2 + 4.8e2 x8^2 + 1.4e2 x9^2 + 3.3e2 x10^2 ]/2 + objconstant

Subject To
 e2: - x1 + x2 + x211 >= 0
 e3: - x1 + x3 + x212 >= 0
 e4: - x1 + x4 + x213 >= 0
 e5: - x1 + x5 + x214 >= 0
 e6: - x2 + x3 + x215 >= 0
 e7: - x2 + x4 + x216 >= 0
 e8: - x2 + x5 + x217 >= 0
 e9: - x3 + x4 + x218 >= 0
 e10: - x3 + x5 + x219 >= 0
 e11: - x4 + x5 + x220 >= 0
 e12: x1 - x2 + x211 >= 0
 e13: x1 - x3 + x212 >= 0
 e14: x1 - x4 + x213 >= 0
 e15: x1 - x5 + x214 >= 0
 e16: x2 - x3 + x215 >= 0
 e17: x2 - x4 + x216 >= 0
 e18: x2 - x5 + x217 >= 0
 e19: x3 - x4 + x218 >= 0
 e20: x3 - x5 + x219 >= 0
 e21: x4 - x5 + x220 >= 0
 e22: - x6 + x7 + x221 >= 0
 e23: - x6 + x8 + x222 >= 0
 e24: - x6 + x9 + x223 >= 0
 e25: - x6 + x10 + x224 >= 0
 e26: - x7 + x8 + x225 >= 0
 e27: - x7 + x9 + x226 >= 0
 e28: - x7 + x10 + x227 >= 0
 e29: - x8 + x9 + x228 >= 0
 e30: - x8 + x10 + x229 >= 0
 e31: - x9 + x10 + x230 >= 0
 e32: x6 - x7 + x221 >= 0
 e33: x6 - x8 + x222 >= 0
 e34: x6 - x9 + x223 >= 0
 e35: x6 - x10 + x224 >= 0
 e36: x7 - x8 + x225 >= 0
 e37: x7 - x9 + x226 >= 0
 e38: x7 - x10 + x227 >= 0
 e39: x8 - x9 + x228 >= 0
 e40: x8 - x10 + x229 >= 0
 e41: x9 - x10 + x230 >= 0
 e42: x1 - x11 - x15 - x19 - x23 = 0
 e43: x1 - x12 - x16 - x20 - x24 = 0
 e44: x1 - x13 - x17 - x21 - x25 = 0
 e45: x1 - x14 - x18 - x22 - x26 = 0
 e46: x2 - x27 - x31 - x35 - x39 = 0
 e47: x2 - x28 - x32 - x36 - x40 = 0
 e48: x2 - x29 - x33 - x37 - x41 = 0
 e49: x2 - x30 - x34 - x38 - x42 = 0
 e50: x3 - x43 - x47 - x51 - x55 = 0
 e51: x3 - x44 - x48 - x52 - x56 = 0
 e52: x3 - x45 - x49 - x53 - x57 = 0
 e53: x3 - x46 - x50 - x54 - x58 = 0
 e54: x4 - x59 - x63 - x67 - x71 = 0
 e55: x4 - x60 - x64 - x68 - x72 = 0
 e56: x4 - x61 - x65 - x69 - x73 = 0
 e57: x4 - x62 - x66 - x70 - x74 = 0
 e58: x5 - x75 - x79 - x83 - x87 = 0
 e59: x5 - x76 - x80 - x84 - x88 = 0
 e60: x5 - x77 - x81 - x85 - x89 = 0
 e61: x5 - x78 - x82 - x86 - x90 = 0
 e62: x6 - x91 - x95 - x99 - x103 = 0
 e63: x6 - x92 - x96 - x100 - x104 = 0
 e64: x6 - x93 - x97 - x101 - x105 = 0
 e65: x6 - x94 - x98 - x102 - x106 = 0
 e66: x7 - x107 - x111 - x115 - x119 = 0
 e67: x7 - x108 - x112 - x116 - x120 = 0
 e68: x7 - x109 - x113 - x117 - x121 = 0
 e69: x7 - x110 - x114 - x118 - x122 = 0
 e70: x8 - x123 - x127 - x131 - x135 = 0
 e71: x8 - x124 - x128 - x132 - x136 = 0
 e72: x8 - x125 - x129 - x133 - x137 = 0
 e73: x8 - x126 - x130 - x134 - x138 = 0
 e74: x9 - x139 - x143 - x147 - x151 = 0
 e75: x9 - x140 - x144 - x148 - x152 = 0
 e76: x9 - x141 - x145 - x149 - x153 = 0
 e77: x9 - x142 - x146 - x150 - x154 = 0
 e78: x10 - x155 - x159 - x163 - x167 = 0
 e79: x10 - x156 - x160 - x164 - x168 = 0
 e80: x10 - x157 - x161 - x165 - x169 = 0
 e81: x10 - x158 - x162 - x166 - x170 = 0
 e82: x11 - 27.5 b171 <= 0
 e83: x12 - 27.5 b172 <= 0
 e84: x13 - 27.5 b173 <= 0
 e85: x14 - 27.5 b174 <= 0
 e86: x15 - 27.5 b181 <= 0
 e87: x16 - 27.5 b182 <= 0
 e88: x17 - 27.5 b183 <= 0
 e89: x18 - 27.5 b184 <= 0
 e90: x19 - 27.5 b191 <= 0
 e91: x20 - 27.5 b192 <= 0
 e92: x21 - 27.5 b193 <= 0
 e93: x22 - 27.5 b194 <= 0
 e94: x23 - 27.5 b201 <= 0
 e95: x24 - 27.5 b202 <= 0
 e96: x25 - 27.5 b203 <= 0
 e97: x26 - 27.5 b204 <= 0
 e98: x27 - 27.5 b171 <= 0
 e99: x28 - 26.5 b175 <= 0
 e100: x29 - 26.5 b176 <= 0
 e101: x30 - 26.5 b177 <= 0
 e102: x31 - 27.5 b181 <= 0
 e103: x32 - 26.5 b185 <= 0
 e104: x33 - 26.5 b186 <= 0
 e105: x34 - 26.5 b187 <= 0
 e106: x35 - 27.5 b191 <= 0
 e107: x36 - 26.5 b195 <= 0
 e108: x37 - 26.5 b196 <= 0
 e109: x38 - 26.5 b197 <= 0
 e110: x39 - 27.5 b201 <= 0
 e111: x40 - 26.5 b205 <= 0
 e112: x41 - 26.5 b206 <= 0
 e113: x42 - 26.5 b207 <= 0
 e114: x43 - 27.5 b172 <= 0
 e115: x44 - 26.5 b175 <= 0
 e116: x45 - 28.5 b178 <= 0
 e117: x46 - 28.5 b179 <= 0
 e118: x47 - 27.5 b182 <= 0
 e119: x48 - 26.5 b185 <= 0
 e120: x49 - 28.5 b188 <= 0
 e121: x50 - 28.5 b189 <= 0
 e122: x51 - 27.5 b192 <= 0
 e123: x52 - 26.5 b195 <= 0
 e124: x53 - 28.5 b198 <= 0
 e125: x54 - 28.5 b199 <= 0
 e126: x55 - 27.5 b202 <= 0
 e127: x56 - 26.5 b205 <= 0
 e128: x57 - 28.5 b208 <= 0
 e129: x58 - 28.5 b209 <= 0
 e130: x59 - 27.5 b173 <= 0
 e131: x60 - 26.5 b176 <= 0
 e132: x61 - 28.5 b178 <= 0
 e133: x62 - 29 b180 <= 0
 e134: x63 - 27.5 b183 <= 0
 e135: x64 - 26.5 b186 <= 0
 e136: x65 - 28.5 b188 <= 0
 e137: x66 - 29 b190 <= 0
 e138: x67 - 27.5 b193 <= 0
 e139: x68 - 26.5 b196 <= 0
 e140: x69 - 28.5 b198 <= 0
 e141: x70 - 29 b200 <= 0
 e142: x71 - 27.5 b203 <= 0
 e143: x72 - 26.5 b206 <= 0
 e144: x73 - 28.5 b208 <= 0
 e145: x74 - 29 b210 <= 0
 e146: x75 - 27.5 b174 <= 0
 e147: x76 - 26.5 b177 <= 0
 e148: x77 - 28.5 b179 <= 0
 e149: x78 - 29 b180 <= 0
 e150: x79 - 27.5 b184 <= 0
 e151: x80 - 26.5 b187 <= 0
 e152: x81 - 28.5 b189 <= 0
 e153: x82 - 29 b190 <= 0
 e154: x83 - 27.5 b194 <= 0
 e155: x84 - 26.5 b197 <= 0
 e156: x85 - 28.5 b199 <= 0
 e157: x86 - 29 b200 <= 0
 e158: x87 - 27.5 b204 <= 0
 e159: x88 - 26.5 b207 <= 0
 e160: x89 - 28.5 b209 <= 0
 e161: x90 - 29 b210 <= 0
 e162: x91 - 27 b171 <= 0
 e163: x92 - 27 b172 <= 0
 e164: x93 - 27 b173 <= 0
 e165: x94 - 27 b174 <= 0
 e166: x95 - 27 b181 <= 0
 e167: x96 - 27 b182 <= 0
 e168: x97 - 27 b183 <= 0
 e169: x98 - 27 b184 <= 0
 e170: x99 - 27 b191 <= 0
 e171: x100 - 27 b192 <= 0
 e172: x101 - 27 b193 <= 0
 e173: x102 - 27 b194 <= 0
 e174: x103 - 27 b201 <= 0
 e175: x104 - 27 b202 <= 0
 e176: x105 - 27 b203 <= 0
 e177: x106 - 27 b204 <= 0
 e178: x107 - 27 b171 <= 0
 e179: x108 - 27.5 b175 <= 0
 e180: x109 - 27.5 b176 <= 0
 e181: x110 - 27.5 b177 <= 0
 e182: x111 - 27 b181 <= 0
 e183: x112 - 27.5 b185 <= 0
 e184: x113 - 27.5 b186 <= 0
 e185: x114 - 27.5 b187 <= 0
 e186: x115 - 27 b191 <= 0
 e187: x116 - 27.5 b195 <= 0
 e188: x117 - 27.5 b196 <= 0
 e189: x118 - 27.5 b197 <= 0
 e190: x119 - 27 b201 <= 0
 e191: x120 - 27.5 b205 <= 0
 e192: x121 - 27.5 b206 <= 0
 e193: x122 - 27.5 b207 <= 0
 e194: x123 - 27 b172 <= 0
 e195: x124 - 27.5 b175 <= 0
 e196: x125 - 28.5 b178 <= 0
 e197: x126 - 28.5 b179 <= 0
 e198: x127 - 27 b182 <= 0
 e199: x128 - 27.5 b185 <= 0
 e200: x129 - 28.5 b188 <= 0
 e201: x130 - 28.5 b189 <= 0
 e202: x131 - 27 b192 <= 0
 e203: x132 - 27.5 b195 <= 0
 e204: x133 - 28.5 b198 <= 0
 e205: x134 - 28.5 b199 <= 0
 e206: x135 - 27 b202 <= 0
 e207: x136 - 27.5 b205 <= 0
 e208: x137 - 28.5 b208 <= 0
 e209: x138 - 28.5 b209 <= 0
 e210: x139 - 27 b173 <= 0
 e211: x140 - 27.5 b176 <= 0
 e212: x141 - 28.5 b178 <= 0
 e213: x142 - 28.5 b180 <= 0
 e214: x143 - 27 b183 <= 0
 e215: x144 - 27.5 b186 <= 0
 e216: x145 - 28.5 b188 <= 0
 e217: x146 - 28.5 b190 <= 0
 e218: x147 - 27 b193 <= 0
 e219: x148 - 27.5 b196 <= 0
 e220: x149 - 28.5 b198 <= 0
 e221: x150 - 28.5 b200 <= 0
 e222: x151 - 27 b203 <= 0
 e223: x152 - 27.5 b206 <= 0
 e224: x153 - 28.5 b208 <= 0
 e225: x154 - 28.5 b210 <= 0
 e226: x155 - 27 b174 <= 0
 e227: x156 - 27.5 b177 <= 0
 e228: x157 - 28.5 b179 <= 0
 e229: x158 - 28.5 b180 <= 0
 e230: x159 - 27 b184 <= 0
 e231: x160 - 27.5 b187 <= 0
 e232: x161 - 28.5 b189 <= 0
 e233: x162 - 28.5 b190 <= 0
 e234: x163 - 27 b194 <= 0
 e235: x164 - 27.5 b197 <= 0
 e236: x165 - 28.5 b199 <= 0
 e237: x166 - 28.5 b200 <= 0
 e238: x167 - 27 b204 <= 0
 e239: x168 - 27.5 b207 <= 0
 e240: x169 - 28.5 b209 <= 0
 e241: x170 - 28.5 b210 <= 0
 e242: x11 - x27 + 6 b171 <= 0
 e243: x12 - x43 + 4 b172 <= 0
 e244: x13 - x59 + 3.5 b173 <= 0
 e245: x14 - x75 + 4.5 b174 <= 0
 e246: x28 - x44 + 5 b175 <= 0
 e247: x29 - x60 + 4.5 b176 <= 0
 e248: x30 - x76 + 5.5 b177 <= 0
 e249: x45 - x61 + 2.5 b178 <= 0
 e250: x46 - x77 + 3.5 b179 <= 0
 e251: x62 - x78 + 3 b180 <= 0
 e252: - x15 + x31 + 6 b181 <= 0
 e253: - x16 + x47 + 4 b182 <= 0
 e254: - x17 + x63 + 3.5 b183 <= 0
 e255: - x18 + x79 + 4.5 b184 <= 0
 e256: - x32 + x48 + 5 b185 <= 0
 e257: - x33 + x64 + 4.5 b186 <= 0
 e258: - x34 + x80 + 5.5 b187 <= 0
 e259: - x49 + x65 + 2.5 b188 <= 0
 e260: - x50 + x81 + 3.5 b189 <= 0
 e261: - x66 + x82 + 3 b190 <= 0
 e262: x99 - x115 + 5.5 b191 <= 0
 e263: x100 - x131 + 4.5 b192 <= 0
 e264: x101 - x147 + 4.5 b193 <= 0
 e265: x102 - x163 + 5 b194 <= 0
 e266: x116 - x132 + 4 b195 <= 0
 e267: x117 - x148 + 4 b196 <= 0
 e268: x118 - x164 + 4.5 b197 <= 0
 e269: x133 - x149 + 3 b198 <= 0
 e270: x134 - x165 + 3.5 b199 <= 0
 e271: x150 - x166 + 3.5 b200 <= 0
 e272: - x103 + x119 + 5.5 b201 <= 0
 e273: - x104 + x135 + 4.5 b202 <= 0
 e274: - x105 + x151 + 4.5 b203 <= 0
 e275: - x106 + x167 + 5 b204 <= 0
 e276: - x120 + x136 + 4 b205 <= 0
 e277: - x121 + x152 + 4 b206 <= 0
 e278: - x122 + x168 + 4.5 b207 <= 0
 e279: - x137 + x153 + 3 b208 <= 0
 e280: - x138 + x169 + 3.5 b209 <= 0
 e281: - x154 + x170 + 3.5 b210 <= 0
 e282: b171 + b181 + b191 + b201 = 1
 e283: b172 + b182 + b192 + b202 = 1
 e284: b173 + b183 + b193 + b203 = 1
 e285: b174 + b184 + b194 + b204 = 1
 e286: b175 + b185 + b195 + b205 = 1
 e287: b176 + b186 + b196 + b206 = 1
 e288: b177 + b187 + b197 + b207 = 1
 e289: b178 + b188 + b198 + b208 = 1
 e290: b179 + b189 + b199 + b209 = 1
 e291: b180 + b190 + b200 + b210 = 1

Bounds
 2.5 <= x1 <= 27.5
 3.5 <= x2 <= 26.5
 1.5 <= x3 <= 28.5
 1 <= x4 <= 29
 2 <= x5 <= 28
 3 <= x6 <= 27
 2.5 <= x7 <= 27.5
 1.5 <= x8 <= 28.5
 1.5 <= x9 <= 28.5
 2 <= x10 <= 28
 objconstant = 290295

Binary
 b171 b172 b173 b174 b175 b176 b177 b178 b179 b180 b181 b182 b183 b184 b185 b186 b187 b188 b189
 b190 b191 b192 b193 b194 b195 b196 b197 b198 b199 b200 b201 b202 b203 b204 b205 b206 b207 b208
 b209 b210

End
